
;this file is automatically generated: Thu Jan 02 16:54:47 GMT 2020

;declarations generated

(declare-fun oclExcludes ( Int Int) Bool)
(declare-fun Cardinality ( Int) Int)
(declare-fun class19_Class19IntAttr2 ( Int) Int)
(declare-fun class19_Class19IntAttr3 ( Int) Int)
(declare-fun obj_7e43bbe8_d65d_4fc9_886c_0b979574fe17 ( Int) Int)
(declare-fun oclSelect ( Int Bool) Int)
(declare-fun Enum0 ( Int) Int)
(declare-fun Enum1 ( Int) Int)
(declare-fun Enum2 ( Int) Int)
(declare-fun container_ ( Int) Int)
(declare-fun oclIncludes ( Int Int) Bool)
(declare-fun type_a732f64f_8ea7_41c6_8a18_c005ad30e662_Class19 ( Int) Bool)
(declare-fun type_a732f64f_8ea7_41c6_8a18_c005ad30e662_Class2 ( Int) Bool)
(declare-fun ObjAt ( Int Int) Int)

;formula(s) generated
(assert (! (forall ((c9_2 Int)(c9_1 Int)) (=> (and (and ( type_a732f64f_8ea7_41c6_8a18_c005ad30e662_Class19 c9_1 )  ( type_a732f64f_8ea7_41c6_8a18_c005ad30e662_Class2 c9_1 ) ) (and ( type_a732f64f_8ea7_41c6_8a18_c005ad30e662_Class19 c9_2 )  ( type_a732f64f_8ea7_41c6_8a18_c005ad30e662_Class2 c9_2 ) )) (or (= ( class19_Class19IntAttr2 ( obj_7e43bbe8_d65d_4fc9_886c_0b979574fe17 c9_1 )  )  ( class19_Class19IntAttr3 ( obj_7e43bbe8_d65d_4fc9_886c_0b979574fe17 c9_2 )  ) ) (and (forall ((v Int)) (=> (and ( type_a732f64f_8ea7_41c6_8a18_c005ad30e662_Class19 v )  ( type_a732f64f_8ea7_41c6_8a18_c005ad30e662_Class2 v ) ) (not (= ( class19_Class19IntAttr3 ( obj_7e43bbe8_d65d_4fc9_886c_0b979574fe17 v )  )  10) ))) (forall ((v Int)) (=> (and ( type_a732f64f_8ea7_41c6_8a18_c005ad30e662_Class19 v )  ( type_a732f64f_8ea7_41c6_8a18_c005ad30e662_Class2 v ) ) (not (= ( class19_Class19IntAttr2 ( obj_7e43bbe8_d65d_4fc9_886c_0b979574fe17 v )  )  1) ))))))):named l0))
(assert (! (forall ((v Int)) (=> (and ( type_a732f64f_8ea7_41c6_8a18_c005ad30e662_Class19 v )  ( type_a732f64f_8ea7_41c6_8a18_c005ad30e662_Class2 v ) ) (<= ( class19_Class19IntAttr2 ( obj_7e43bbe8_d65d_4fc9_886c_0b979574fe17 v )  )  1))):named l1))
(assert (exists ((o Int)) (and ( type_a732f64f_8ea7_41c6_8a18_c005ad30e662_Class19 ( obj_7e43bbe8_d65d_4fc9_886c_0b979574fe17 o )  )  ( type_a732f64f_8ea7_41c6_8a18_c005ad30e662_Class2 ( obj_7e43bbe8_d65d_4fc9_886c_0b979574fe17 o )  ) )))

 ;end of formula 